(assert (forall ((pkt_0_4_6_0  Int  )(state_group_0_state_0_5_7_0  Int  )(state_group_0_state_1_6_8_0  Int  )) (let ((_n0 state_group_0_state_1_6_8_0 ))
(let ((_n1 state_group_0_state_0_5_7_0 ))
(let ((_n2 true ))
(let ((_n3 (+   _n1   (ite  _n2  1 0) ) ))
(let ((_n4 (ite (=  _n0  0)  _n3   _n1  ) ))
(let ((_n5 (<   _n0   (ite  _n2  1 0) ) ))
(let ((_n6 pkt_0_4_6_0 ))
(let ((_n7 false ))
(let ((_n8 (ite  _n5   (ite  _n7  1 0)   _n6  ) ))
(let ((_n9 (ite  _n5   (ite  _n7  1 0)   _n1  ) ))
(let ((_n10 (+   _n9   _n8 ) ))
(let ((_n11 (=   _n10   (ite  _n2  1 0) ) ))
(let ((_n12 (ite  _n5   _n7   _n11  ) ))
(let ((_n13 (not  _n12 ) ))
(let ((_n14 (or   _n13   _n5 ) ))
(let ((_n15 (ite  _n14   (ite  _n7  1 0)   _n6  ) ))
(let ((_n16 (=   _n15   (ite  _n2  1 0) ) ))
(let ((_n17 (not  _n16 ) ))
(let ((_n18 (not  _n14 ) ))
(let ((_n19 (and   _n18   _n17 ) ))
(let ((_n20 (not  _n19 ) ))
(let ((_n21 (or   _n20   _n14 ) ))
(let ((_n22 2 ))
(let ((_n23 (ite  _n21   (ite  _n7  1 0)   _n22  ) ))
(let ((_n24 (-  _n23 )))
(let ((_n25 3 ))
(let ((_n26 (ite  _n21   (ite  _n7  1 0)   _n25  ) ))
(let ((_n27 (+   _n26   _n24 ) ))
(let ((_n28 (ite  _n21   (ite  _n7  1 0)   _n27  ) ))
(let ((_n29 (ite  _n21   _n1   (ite  _n7  1 0)  ) ))
(let ((_n30 (+   _n29   _n28 ) ))
(let ((_n31 (ite (=  (ite  _n19  1 0)  1)  _n30   _n1  ) ))
(let ((_n32 (ite (=  (ite  _n12  1 0)  1)  _n31   _n1  ) ))
(let ((_n33 999 ))
(let ((_n34 (ite  _n5   _n1   (ite  _n7  1 0)  ) ))
(let ((_n35 (<   _n34   _n33 ) ))
(let ((_n36 (and   _n5   _n35 ) ))
(let ((_n37 (not  _n5 ) ))
(let ((_n38 (or   _n36   _n37 ) ))
(let ((_n39 (not  _n38 ) ))
(let ((_n40 (ite  _n38   (ite  _n7  1 0)   _n33  ) ))
(let ((_n41 (+   _n40   (ite  _n39  1 0) ) ))
(let ((_n42 (ite  _n38   (ite  _n7  1 0)   _n41  ) ))
(let ((_n43 (ite  _n38   _n1   (ite  _n7  1 0)  ) ))
(let ((_n44 (+   _n43   _n42 ) ))
(let ((_n45 (and   _n36   _n5 ) ))
(let ((_n46 (+   _n1   (ite  _n45  1 0) ) ))
(let ((_n47 (ite (=  (ite  _n36  1 0)  1)  _n46   _n44  ) ))
(let ((_n48 (ite (=  (ite  _n5  1 0)  1)  _n47   _n32  ) ))
(let ((_n49 (=   _n48   _n4 ) ))
(let ((_n51 (ite (=  _n1  999)  (ite  _n2  1 0)   _n0  ) ))
(let ((_n52 (ite (=  _n0  0)  _n51   _n0  ) ))
(let ((_n53 (or   _n19   _n14 ) ))
(let ((_n54 (not  _n53 ) ))
(let ((_n55 (-  (ite  _n54  1 0) )))
(let ((_n56 (ite  _n53   (ite  _n7  1 0)   _n6  ) ))
(let ((_n57 (+   _n56   _n55 ) ))
(let ((_n58 (ite  _n53   (ite  _n7  1 0)   _n57  ) ))
(let ((_n59 (+   _n0   _n58 ) ))
(let ((_n60 (ite (=  (ite  _n19  1 0)  1)  _n0   _n59  ) ))
(let ((_n61 (ite (=  (ite  _n12  1 0)  1)  _n60   _n0  ) ))
(let ((_n62 (+   _n0   (ite  _n39  1 0) ) ))
(let ((_n63 (ite (=  (ite  _n36  1 0)  1)  _n0   _n62  ) ))
(let ((_n64 (ite (=  (ite  _n5  1 0)  1)  _n63   _n61  ) ))
(let ((_n65 (=   _n64   _n52 ) ))
(implies  (and (and (>= state_group_0_state_1_6_8_0 0) (< state_group_0_state_1_6_8_0 1024 ))  (and (and (>= state_group_0_state_0_5_7_0 0) (< state_group_0_state_0_5_7_0 1024 ))  (and (>= pkt_0_4_6_0 0) (< pkt_0_4_6_0 1024 )) ) )   (and  _n49  _n65 )  ))))))))))))))))))))))))))))))))))))))))))))))))))))))))))))))))))))
(check-sat)
(get-model)
(exit)